15
2 0 9
3 2 2
4 0 1
4 1 10
5 0 2
5 3 7
5 4 8
6 3 9
8 3 10
8 5 2
8 6 4
9 2 4
9 3 6
10 0 7
10 2 9
10 4 7
10 7 2
10 8 7
11 0 5
11 6 3
11 7 5
11 8 10
11 9 6
11 10 3
12 0 10
12 2 4
12 3 9
12 4 9
12 5 3
12 6 9
12 9 4
12 10 1
13 0 4
13 1 3
13 2 6
13 5 9
13 7 8
13 8 2
13 9 4
13 10 10
14 0 8
14 1 7
14 5 5
14 6 8
14 8 3
14 12 4
